files/upTests/_tuples_of_matrix/simpleMulti/0001.eprime
language ESSENCE' 1.0

find y_tuple1_tuple1: matrix indexed by [int(1, 2)] of int(10, 11)
find y_tuple1_tuple2: matrix indexed by [int(1, 2)] of int(12, 13)
find y_tuple1_tuple3: matrix indexed by [int(1, 2)] of int(33, 55)
such that
    y_tuple1_tuple1[1] = 10,
    y_tuple1_tuple1[2] = 11,
    y_tuple1_tuple2[1] = 12,
    y_tuple1_tuple2[2] = 13,
    y_tuple1_tuple3[1] = 33,
    y_tuple1_tuple3[2] = 55
