files/upTests/_tuples_of_matrix/simpleMulti/0001.eprime.solution
language ESSENCE' 1.0
$ minion Nodes: 1
$ minion TotalTime: 0.000553
$ Savile Row TotalTime: 0.123
letting y_tuple1_tuple2 be [12, 13]
letting y_tuple1_tuple3 be [33, 55]
letting y_tuple1_tuple1 be [10, 11]
